certificates/rado_a13_c24_N28.cnf
c Rad2 upper bound instance: x1 + 13*x2 - x3 = 24, interval [1,28]
p cnf 28 112
1 2 3 0
-1 -2 -3 0
1 3 16 0
-1 -3 -16 0
2 4 0
-2 -4 0
2 3 17 0
-2 -3 -17 0
2 3 5 0
-2 -3 -5 0
3 18 0
-3 -18 0
2 4 6 0
-2 -4 -6 0
3 4 19 0
-3 -4 -19 0
2 5 7 0
-2 -5 -7 0
3 5 20 0
-3 -5 -20 0
2 6 8 0
-2 -6 -8 0
3 6 21 0
-3 -6 -21 0
2 7 9 0
-2 -7 -9 0
3 7 22 0
-3 -7 -22 0
2 8 10 0
-2 -8 -10 0
3 8 23 0
-3 -8 -23 0
2 9 11 0
-2 -9 -11 0
3 9 24 0
-3 -9 -24 0
2 10 12 0
-2 -10 -12 0
3 10 25 0
-3 -10 -25 0
2 11 13 0
-2 -11 -13 0
3 11 26 0
-3 -11 -26 0
1 12 0
-1 -12 0
2 12 14 0
-2 -12 -14 0
3 12 27 0
-3 -12 -27 0
1 2 13 0
-1 -2 -13 0
2 13 15 0
-2 -13 -15 0
3 13 28 0
-3 -13 -28 0
1 3 14 0
-1 -3 -14 0
2 14 16 0
-2 -14 -16 0
1 4 15 0
-1 -4 -15 0
2 15 17 0
-2 -15 -17 0
1 5 16 0
-1 -5 -16 0
2 16 18 0
-2 -16 -18 0
1 6 17 0
-1 -6 -17 0
2 17 19 0
-2 -17 -19 0
1 7 18 0
-1 -7 -18 0
2 18 20 0
-2 -18 -20 0
1 8 19 0
-1 -8 -19 0
2 19 21 0
-2 -19 -21 0
1 9 20 0
-1 -9 -20 0
2 20 22 0
-2 -20 -22 0
1 10 21 0
-1 -10 -21 0
2 21 23 0
-2 -21 -23 0
1 11 22 0
-1 -11 -22 0
2 22 24 0
-2 -22 -24 0
1 12 23 0
-1 -12 -23 0
2 23 25 0
-2 -23 -25 0
1 13 24 0
-1 -13 -24 0
2 24 26 0
-2 -24 -26 0
1 14 25 0
-1 -14 -25 0
2 25 27 0
-2 -25 -27 0
1 15 26 0
-1 -15 -26 0
2 26 28 0
-2 -26 -28 0
1 16 27 0
-1 -16 -27 0
1 17 28 0
-1 -17 -28 0
