certificates/rado_a13_c24_N28.drat
3 2 -28 0
-26 -28 0
d -26 -2 -28 0
-3 -27 0
3 -28 0
d 3 2 -28 0
-2 -3 0
d -17 -2 -3 0
-3 -28 0
d -13 -3 -28 0
-28 0
-3 0
18 0
13 0
2 0
-4 0
-20 0
-16 0
-15 0
-1 0
-11 0
19 0
5 0
9 0
0
